* #variable= 47 #constraint= 257
****************************************
* begin normalizer comments
* category= OPT-SMALLINT-LIN
* end normalizer comments
****************************************
min: +256 x20 +256 x21 +256 x22 +256 x23 +256 x24 +256 x25 +256 x26 +256 x27 +256 x28 +256 x29 +256 x30 +256 x31 +256 x32 +256 x33 +1 x34 +1 x35 +1 x36 +1 x37 +1 x38 +1 x39 +1 x40 +1 x41 +1 x42 +1 x43 +1 x44 +1 x45 +1 x46 +1 x47 ;
-1 x1 +1 x2 >= 0 ;
-1 x3 +1 x4 +1 x5 >= 0 ;
-1 x3 +1 x1 >= 0 ;
-1 x3 +1 x1 >= 0 ;
-1 x6 +1 x5 >= 0 ;
-1 x6 +1 x1 >= 0 ;
-1 x6 +1 x1 >= 0 ;
-1 x6 +1 x1 >= 0 ;
-1 x8 +1 x1 >= 0 ;
-1 x8 +1 x1 >= 0 ;
-1 x8 +1 x3 +1 x6 >= 0 ;
-1 x8 +1 x1 >= 0 ;
-1 x8 +1 x9 +1 x10 >= 0 ;
-1 x8 +1 x11 +1 x12 >= 0 ;
-1 x8 +1 x1 >= 0 ;
-1 x7 +1 x1 >= 0 ;
-1 x7 +1 x13 >= 0 ;
-1 x7 +1 x1 >= 0 ;
-1 x7 +1 x14 >= 0 ;
-1 x7 +1 x1 >= 0 ;
-1 x9 +1 x1 >= 0 ;
-1 x10 +1 x1 >= 0 ;
-1 x11 +1 x1 >= 0 ;
-1 x11 +1 x15 >= 0 ;
-1 x11 +1 x1 >= 0 ;
-1 x12 +1 x1 >= 0 ;
-1 x12 +1 x1 >= 0 ;
-1 x12 +1 x15 >= 0 ;
-1 x12 +1 x1 >= 0 ;
-1 x13 +1 x1 >= 0 ;
-1 x13 +1 x1 >= 0 ;
-1 x16 +1 x1 >= 0 ;
-1 x16 +1 x3 +1 x6 >= 0 ;
-1 x16 +1 x8 >= 0 ;
-1 x16 +1 x8 >= 0 ;
-1 x16 +1 x8 >= 0 ;
-1 x16 +1 x1 >= 0 ;
-1 x16 +1 x1 >= 0 ;
-1 x16 +1 x9 +1 x10 >= 0 ;
-1 x16 +1 x1 >= 0 ;
-1 x14 +1 x1 >= 0 ;
-1 x14 +1 x1 >= 0 ;
-1 x14 +1 x1 >= 0 ;
-1 x14 +1 x13 >= 0 ;
-1 x14 +1 x13 >= 0 ;
-1 x14 +1 x13 >= 0 ;
-1 x14 +1 x1 >= 0 ;
-1 x14 +1 x1 >= 0 ;
-1 x14 +1 x1 >= 0 ;
-1 x17 +1 x16 >= 0 ;
-1 x17 +1 x1 >= 0 ;
-1 x17 +1 x1 >= 0 ;
-1 x17 +1 x3 +1 x6 >= 0 ;
-1 x17 +1 x8 >= 0 ;
-1 x17 +1 x8 >= 0 ;
-1 x17 +1 x1 >= 0 ;
-1 x18 +1 x1 >= 0 ;
-1 x18 +1 x3 +1 x6 >= 0 ;
-1 x18 +1 x3 +1 x6 >= 0 ;
-1 x18 +1 x1 >= 0 ;
-1 x18 +1 x8 >= 0 ;
-1 x18 +1 x1 >= 0 ;
-1 x18 +1 x9 +1 x10 >= 0 ;
-1 x18 +1 x11 +1 x12 >= 0 ;
-1 x18 +1 x15 >= 0 ;
-1 x18 +1 x1 >= 0 ;
-1 x15 +1 x1 >= 0 ;
-1 x15 +1 x1 >= 0 ;
-1 x15 +1 x1 >= 0 ;
-1 x15 +1 x1 >= 0 ;
-1 x19 +1 x18 >= 0 ;
-1 x19 +1 x17 >= 0 ;
+1 x19 >= 1 ;
-1 x20 -1 x2 >= -1 ;
-1 x20 >= 0 ;
-1 x21 -1 x5 >= -1 ;
-1 x21 +1 x4 >= 0 ;
+1 x5 -1 x4 +1 x21 >= 0 ;
-1 x22 -1 x1 >= -1 ;
-1 x22 >= 0 ;
-1 x23 -1 x6 >= -1 ;
-1 x23 +1 x3 >= 0 ;
+1 x6 -1 x3 +1 x23 >= 0 ;
-1 x24 -1 x8 >= -1 ;
-1 x24 >= 0 ;
-1 x25 -1 x7 >= -1 ;
-1 x25 >= 0 ;
-1 x26 -1 x10 >= -1 ;
-1 x26 +1 x9 >= 0 ;
+1 x10 -1 x9 +1 x26 >= 0 ;
-1 x27 -1 x12 >= -1 ;
-1 x27 +1 x11 >= 0 ;
+1 x12 -1 x11 +1 x27 >= 0 ;
-1 x28 -1 x13 >= -1 ;
-1 x28 >= 0 ;
-1 x29 -1 x16 >= -1 ;
-1 x29 >= 0 ;
-1 x30 -1 x14 >= -1 ;
-1 x30 >= 0 ;
-1 x31 -1 x17 >= -1 ;
-1 x31 >= 0 ;
-1 x32 -1 x18 >= -1 ;
-1 x32 >= 0 ;
-1 x33 -1 x15 >= -1 ;
-1 x33 >= 0 ;
-1 x2 +1 x34 >= 0 ;
-1 x34 +1 x2 >= 0 ;
-1 x4 +1 x35 >= 0 ;
-1 x5 +1 x35 >= 0 ;
-1 x35 +1 x4 +1 x5 >= 0 ;
-1 x1 +1 x36 >= 0 ;
-1 x36 +1 x1 >= 0 ;
-1 x3 +1 x37 >= 0 ;
-1 x6 +1 x37 >= 0 ;
-1 x37 +1 x3 +1 x6 >= 0 ;
-1 x8 +1 x38 >= 0 ;
-1 x38 +1 x8 >= 0 ;
-1 x7 +1 x39 >= 0 ;
-1 x39 +1 x7 >= 0 ;
-1 x9 +1 x40 >= 0 ;
-1 x10 +1 x40 >= 0 ;
-1 x40 +1 x9 +1 x10 >= 0 ;
-1 x11 +1 x41 >= 0 ;
-1 x12 +1 x41 >= 0 ;
-1 x41 +1 x11 +1 x12 >= 0 ;
-1 x13 +1 x42 >= 0 ;
-1 x42 +1 x13 >= 0 ;
-1 x16 +1 x43 >= 0 ;
-1 x43 +1 x16 >= 0 ;
-1 x14 +1 x44 >= 0 ;
-1 x44 +1 x14 >= 0 ;
-1 x17 +1 x45 >= 0 ;
-1 x45 +1 x17 >= 0 ;
-1 x18 +1 x46 >= 0 ;
-1 x46 +1 x18 >= 0 ;
-1 x15 +1 x47 >= 0 ;
-1 x47 +1 x15 >= 0 ;
